8280
18, 23, 20, 50, 29, 16, 46, 44, 34, 35, 36, 49, 32, 45, 19, 41, 8, 10, 9, 43, 33, 51, 11, 52, 14, 13, 47, 26, 28, 27, 12, 4, 25, 6, 15, 5, 48, 24, 38, 40, 39, 37, 1, 22, 31, 21, 30, 42, 2, 7, 17, 3
